Route #1: 51 7 15 28
Route #2: 10 8 43 29 61 40 20
Route #3: 34 33 58 17 50 57 32 6
Route #4: 59 55 26 35 49 4 11 25 31 12
Route #5: 48 56 14 60 5 18 30 19 38
Route #6: 46 39 27 23 41 21 9 1
Route #7: 53 13 54 42 3 24 47 45
Route #8: 36 16 37 22 44 2 52
Cost 1300
Time 0.093175
